NAME:  br17
TYPE: ATSP
COMMENT: 17 city problem
DIMENSION:  17
EDGE_WEIGHT_TYPE: EXPLICIT
EDGE_WEIGHT_FORMAT: FULL_MATRIX 
EDGE_WEIGHT_SECTION
    0    3    5   48   48    8    8    5    5    3    3    4    3    5    8    8
    5
    3    0    3   48   48    8    8    5    5    2    1    3    6    3    8    8
    5
    5    3    0   72   72   48   48   24   24    3    3    5    3    6   48   48
   24
   48   48   74    0    2    6    6   12   12   48   48   48   48   74    6    6
   12
   48   48   74    1    0    6    6   12   12   48   48   48   48   74    6    6
   12
    8    8   50    6    6    0    9    8    8    8    8    8    8   50    5    4
    8
    8    8   50    6    6    2    0    8    8    8    8    8    8   50    1    3
    8
    5    5   26   12   12    8    8    0    1    5    5    5    5   26    8    8
    3
    5    5   26   12   12    8    8    2    0    5    5    5    5   26    8    8
    2
    3    9    3   48   48    8    8    5    5    0   23    3   53    3    8    8
    5
    3    3    3   48   48    8    8    5    5    6    0    3   44    3    8    8
    5
    1    3    5   48   48    8    8    5    5    3    3    0    3    5    8    8
    5
    3    4    3   48   48    8    8    5    5    5    4    3    0    3    8    8
    5
    5    3    0   72   72   48   48   24   24    3    3    5    3    0   48   48
   24
    8    8   50    6    6    1    3    8    8    8    8    8    8   50    0    1
    8
    8    8   50    6    6    2    5    8    8    8    8    8    8   50    2    0
    8
    5    5   26   12   12    8    8    4    8    5    5    5    5   26    8    8
    0
EOF
